 vasp.5.4.4.18Apr17-6-g9f103f2a35 (build Oct 10 2019 09:51:33) complex

 executed on   carbon_intel19_gpu date 2020.09.25  15:17:25

 INCAR:
 POTCAR:    PAW_PBE Ni_sv_GW 05Dec2013
 POTCAR:    PAW_PBE O_GW 19Mar2012
 POTCAR:    PAW_PBE Ni_sv_GW 05Dec2013
   VRHFIN =Ni:

   TITEL  = PAW_PBE Ni_sv_GW 05Dec2013
   POMASS =   58.690; ZVAL   =   18.000    mass and valenz
   ENMAX  =  389.645; ENMIN  =  292.234 eV

 POTCAR:    PAW_PBE O_GW 19Mar2012
   VRHFIN =O: s2p4

   TITEL  = PAW_PBE O_GW 19Mar2012
   POMASS =   16.000; ZVAL   =    6.000    mass and valenz
   ENMAX  =  434.431; ENMIN  =  325.824 eV

 Optimization of the real space projectors (new method)

 maximal supplied QI-value         = 19.84
 optimisation between [QCUT,QGAM] = [ 12.50, 25.00] = [ 43.76,175.03] Ry
 Optimized for a Real-space Cutoff    1.31 Angstroem

   l    n(q)    QCUT    max X(q) W(low)/X(q) W(high)/X(q)  e(spline)
   0     10    12.501     2.300    0.65E-05    0.25E-06    0.79E-07
   0     10    12.501     7.576    0.25E-04    0.52E-05    0.18E-06
   0     10    12.501     1.388    0.34E-04    0.75E-05    0.48E-06
   1      9    12.501    11.002    0.11E-03    0.24E-03    0.54E-06
   1      9    12.501    14.537    0.90E-04    0.23E-03    0.70E-06
   1      9    12.501     3.893    0.34E-04    0.51E-04    0.68E-06
   2      9    12.501    14.869    0.32E-03    0.35E-03    0.49E-06
   2      9    12.501     7.291    0.12E-03    0.20E-03    0.30E-06
   2      9    12.501     6.907    0.35E-03    0.37E-03    0.52E-06
   3      8    12.501    10.598    0.33E-03    0.15E-03    0.57E-06
   3      8    12.501     2.997    0.28E-03    0.16E-03    0.51E-06
 Optimization of the real space projectors (new method)

 maximal supplied QI-value         = 23.62
 optimisation between [QCUT,QGAM] = [ 12.52, 25.04] = [ 43.89,175.56] Ry
 Optimized for a Real-space Cutoff    1.35 Angstroem

   l    n(q)    QCUT    max X(q) W(low)/X(q) W(high)/X(q)  e(spline)
   0     10    12.519   116.464    0.13E-03    0.15E-03    0.46E-05
   0     10    12.519   116.329    0.13E-03    0.15E-03    0.44E-05
   0     10    12.519     0.942    0.35E-04    0.90E-04    0.23E-05
   1     10    12.519   133.003    0.28E-03    0.77E-04    0.26E-05
   1     10    12.519   116.443    0.28E-03    0.76E-04    0.26E-05
   1     10    12.519     2.481    0.45E-03    0.95E-04    0.45E-05
   2      9    12.519     2.237    0.21E-04    0.33E-04    0.21E-06
   2      9    12.519     2.497    0.16E-03    0.12E-03    0.32E-06
  PAW_PBE Ni_sv_GW 05Dec2013            :
  PAW_PBE O_GW 19Mar2012                :

 POSCAR: NiO
  positions in direct lattice
 exchange correlation table for  LEXCH =        8
   RHO(1)=    0.500       N(1)  =     2000
   RHO(2)=  100.500       N(2)  =     4000

 ion  position               nearest neighbor table
   1  0.000  0.000  0.000-  33 2.08  37 2.08  49 2.08  50 2.08  57 2.08  59 2.08
   2  0.000  0.000  0.500-  34 2.08  38 2.08  49 2.08  50 2.08  58 2.08  60 2.08
   3  0.000  0.500  0.000-  35 2.08  39 2.08  51 2.08  52 2.08  57 2.08  59 2.08
   4  0.000  0.500  0.500-  36 2.08  40 2.08  51 2.08  52 2.08  58 2.08  60 2.08
   5  0.500  0.000  0.000-  33 2.08  37 2.08  53 2.08  54 2.08  61 2.08  63 2.08
   6  0.500  0.000  0.500-  34 2.08  38 2.08  53 2.08  54 2.08  62 2.08  64 2.08
   7  0.500  0.500  0.000-  35 2.08  39 2.08  55 2.08  56 2.08  61 2.08  63 2.08
   8  0.500  0.500  0.500-  36 2.08  40 2.08  55 2.08  56 2.08  62 2.08  64 2.08
   9  0.000  0.250  0.250-  41 2.08  45 2.08  49 2.08  51 2.08  57 2.08  58 2.08
  10  0.000  0.250  0.750-  42 2.08  46 2.08  50 2.08  52 2.08  57 2.08  58 2.08
  11  0.000  0.750  0.250-  43 2.08  47 2.08  49 2.08  51 2.08  59 2.08  60 2.08
  12  0.000  0.750  0.750-  44 2.08  48 2.08  50 2.08  52 2.08  59 2.08  60 2.08
  13  0.500  0.250  0.250-  41 2.08  45 2.08  53 2.08  55 2.08  61 2.08  62 2.08
  14  0.500  0.250  0.750-  42 2.08  46 2.08  54 2.08  56 2.08  61 2.08  62 2.08
  15  0.500  0.750  0.250-  43 2.08  47 2.08  53 2.08  55 2.08  63 2.08  64 2.08
  16  0.500  0.750  0.750-  44 2.08  48 2.08  54 2.08  56 2.08  63 2.08  64 2.08
  17  0.250  0.000  0.250-  33 2.08  34 2.08  41 2.08  43 2.08  49 2.08  53 2.08
  18  0.250  0.000  0.750-  33 2.08  34 2.08  42 2.08  44 2.08  50 2.08  54 2.08
  19  0.250  0.500  0.250-  35 2.08  36 2.08  41 2.08  43 2.08  51 2.08  55 2.08
  20  0.250  0.500  0.750-  35 2.08  36 2.08  42 2.08  44 2.08  52 2.08  56 2.08
  21  0.750  0.000  0.250-  37 2.08  38 2.08  45 2.08  47 2.08  49 2.08  53 2.08
  22  0.750  0.000  0.750-  37 2.08  38 2.08  46 2.08  48 2.08  50 2.08  54 2.08
  23  0.750  0.500  0.250-  39 2.08  40 2.08  45 2.08  47 2.08  51 2.08  55 2.08
  24  0.750  0.500  0.750-  39 2.08  40 2.08  46 2.08  48 2.08  52 2.08  56 2.08
  25  0.250  0.250  0.000-  33 2.08  35 2.08  41 2.08  42 2.08  57 2.08  61 2.08
  26  0.250  0.250  0.500-  34 2.08  36 2.08  41 2.08  42 2.08  58 2.08  62 2.08
  27  0.250  0.750  0.000-  33 2.08  35 2.08  43 2.08  44 2.08  59 2.08  63 2.08
  28  0.250  0.750  0.500-  34 2.08  36 2.08  43 2.08  44 2.08  60 2.08  64 2.08
  29  0.750  0.250  0.000-  37 2.08  39 2.08  45 2.08  46 2.08  57 2.08  61 2.08
  30  0.750  0.250  0.500-  38 2.08  40 2.08  45 2.08  46 2.08  58 2.08  62 2.08
  31  0.750  0.750  0.000-  37 2.08  39 2.08  47 2.08  48 2.08  59 2.08  63 2.08
  32  0.750  0.750  0.500-  38 2.08  40 2.08  47 2.08  48 2.08  60 2.08  64 2.08
  33  0.250  0.000  0.000-   1 2.08   5 2.08  17 2.08  18 2.08  25 2.08  27 2.08
  34  0.250  0.000  0.500-   2 2.08   6 2.08  17 2.08  18 2.08  26 2.08  28 2.08
  35  0.250  0.500  0.000-   3 2.08   7 2.08  19 2.08  20 2.08  25 2.08  27 2.08
  36  0.250  0.500  0.500-   4 2.08   8 2.08  19 2.08  20 2.08  26 2.08  28 2.08
  37  0.750  0.000  0.000-   1 2.08   5 2.08  21 2.08  22 2.08  29 2.08  31 2.08
  38  0.750  0.000  0.500-   2 2.08   6 2.08  21 2.08  22 2.08  30 2.08  32 2.08
  39  0.750  0.500  0.000-   3 2.08   7 2.08  23 2.08  24 2.08  29 2.08  31 2.08
  40  0.750  0.500  0.500-   4 2.08   8 2.08  23 2.08  24 2.08  30 2.08  32 2.08
  41  0.250  0.250  0.250-   9 2.08  13 2.08  17 2.08  19 2.08  25 2.08  26 2.08
  42  0.250  0.250  0.750-  10 2.08  14 2.08  18 2.08  20 2.08  25 2.08  26 2.08
  43  0.250  0.750  0.250-  11 2.08  15 2.08  17 2.08  19 2.08  27 2.08  28 2.08
  44  0.250  0.750  0.750-  12 2.08  16 2.08  18 2.08  20 2.08  27 2.08  28 2.08
  45  0.750  0.250  0.250-   9 2.08  13 2.08  21 2.08  23 2.08  29 2.08  30 2.08
  46  0.750  0.250  0.750-  10 2.08  14 2.08  22 2.08  24 2.08  29 2.08  30 2.08
  47  0.750  0.750  0.250-  11 2.08  15 2.08  21 2.08  23 2.08  31 2.08  32 2.08
  48  0.750  0.750  0.750-  12 2.08  16 2.08  22 2.08  24 2.08  31 2.08  32 2.08
  49  0.000  0.000  0.250-   1 2.08   2 2.08   9 2.08  11 2.08  17 2.08  21 2.08
  50  0.000  0.000  0.750-   1 2.08   2 2.08  10 2.08  12 2.08  18 2.08  22 2.08
  51  0.000  0.500  0.250-   3 2.08   4 2.08   9 2.08  11 2.08  19 2.08  23 2.08
  52  0.000  0.500  0.750-   3 2.08   4 2.08  10 2.08  12 2.08  20 2.08  24 2.08
  53  0.500  0.000  0.250-   5 2.08   6 2.08  13 2.08  15 2.08  17 2.08  21 2.08
  54  0.500  0.000  0.750-   5 2.08   6 2.08  14 2.08  16 2.08  18 2.08  22 2.08
  55  0.500  0.500  0.250-   7 2.08   8 2.08  13 2.08  15 2.08  19 2.08  23 2.08
  56  0.500  0.500  0.750-   7 2.08   8 2.08  14 2.08  16 2.08  20 2.08  24 2.08
  57  0.000  0.250  0.000-   1 2.08   3 2.08   9 2.08  10 2.08  25 2.08  29 2.08
  58  0.000  0.250  0.500-   2 2.08   4 2.08   9 2.08  10 2.08  26 2.08  30 2.08
  59  0.000  0.750  0.000-   1 2.08   3 2.08  11 2.08  12 2.08  27 2.08  31 2.08
  60  0.000  0.750  0.500-   2 2.08   4 2.08  11 2.08  12 2.08  28 2.08  32 2.08
  61  0.500  0.250  0.000-   5 2.08   7 2.08  13 2.08  14 2.08  25 2.08  29 2.08
  62  0.500  0.250  0.500-   6 2.08   8 2.08  13 2.08  14 2.08  26 2.08  30 2.08
  63  0.500  0.750  0.000-   5 2.08   7 2.08  15 2.08  16 2.08  27 2.08  31 2.08
  64  0.500  0.750  0.500-   6 2.08   8 2.08  15 2.08  16 2.08  28 2.08  32 2.08

  LATTYP: Found a simple cubic cell.
 ALAT       =     8.3230120000

  Lattice vectors:

 A1 = (   8.3230120000,   0.0000000000,   0.0000000000)
 A2 = (   0.0000000000,   8.3230120000,   0.0000000000)
 A3 = (   0.0000000000,   0.0000000000,   8.3230120000)

Analysis of symmetry for initial positions (statically):
 Subroutine PRICEL returns following result:

  LATTYP: Found a face centered cubic cell.
 ALAT       =     4.1615060000

[...]

  32 primitive cells build up your supercell.

 Routine SETGRP: Setting up the symmetry group for a
 simple cubic supercell.

 Subroutine GETGRP returns: Found 48 space group operations
 (whereof 48 operations were pure point group operations)
 out of a pool of 48 trial point group operations.

The static configuration has the point symmetry O_h .

Analysis of symmetry for dynamics (positions and initial velocities):
 Subroutine PRICEL returns following result:

  LATTYP: Found a face centered cubic cell.
 ALAT       =     4.1615060000

  Lattice vectors:

 A1 = (   2.0807530000,   2.0807530000,  -0.0000000000)
 A2 = (   2.0807530000,   0.0000000000,  -2.0807530000)
 A3 = (   0.0000000000,   2.0807530000,  -2.0807530000)

  32 primitive cells build up your supercell.

 Routine SETGRP: Setting up the symmetry group for a
 simple cubic supercell.

 Subroutine GETGRP returns: Found 48 space group operations
 (whereof 48 operations were pure point group operations)
 out of a pool of 48 trial point group operations.

The dynamic configuration has the point symmetry O_h .

 Subroutine INISYM returns: Found 48 space group operations
 (whereof 48 operations are pure point group operations),
 and found    32 'primitive' translations

 KPOINTS: k-points

Automatic generation of k-mesh.
Space group operators:
 irot       det(A)        alpha          n_x          n_y          n_z        tau_x        tau_y        tau_z
    1     1.000000     0.000000     1.000000     0.000000     0.000000     0.000000     0.000000     0.000000
    2    -1.000000     0.000000     1.000000     0.000000     0.000000     0.000000     0.000000     0.000000
    3     1.000000   120.000000    -0.577350    -0.577350    -0.577350     0.000000     0.000000     0.000000
    4    -1.000000   120.000000    -0.577350    -0.577350    -0.577350     0.000000     0.000000     0.000000
    5     1.000000   120.000000     0.577350     0.577350     0.577350     0.000000     0.000000     0.000000
    6    -1.000000   120.000000     0.577350     0.577350     0.577350     0.000000     0.000000     0.000000
    7     1.000000    90.000000     0.000000     0.000000    -1.000000     0.000000     0.000000     0.000000
    8    -1.000000    90.000000     0.000000     0.000000    -1.000000     0.000000     0.000000     0.000000
    9     1.000000   180.000000     0.000000     0.707107     0.707107     0.000000     0.000000     0.000000
   10    -1.000000   180.000000     0.000000     0.707107     0.707107     0.000000     0.000000     0.000000
   11     1.000000    90.000000     0.000000     1.000000     0.000000     0.000000     0.000000     0.000000
   12    -1.000000    90.000000     0.000000     1.000000     0.000000     0.000000     0.000000     0.000000
[...]
     58     -55.7529      2.00000
     59     -55.7529      2.00000
     60     -55.7529      2.00000
[...]
    446      16.0568      0.00000
    447      16.0570      0.00000
    448      16.0571      0.00000
    449      17.1337      0.00000
    450      17.1366      0.00000
    451      17.1381      0.00000
    452      17.6117      0.00000
    453      17.6235      0.00000
    454      17.6483      0.00000
    455      17.6879      0.00000
    456      17.7145      0.00000
    457      17.7457      0.00000
    458      17.8047      0.00000
    459      17.8774      0.00000
    460      17.9580      0.00000

 soft charge-density along one line, spin component           1
         0         1         2         3         4         5         6         7         8         9
 total charge-density along one line

------------------------ aborting loop because EDIFF is reached ----------------------------------------

  FORCE on cell =-STRESS in cart. coord.  units (eV):
  Direction    XX          YY          ZZ          XY          YZ          ZX
  Alpha Z  5503.57108  5503.57108  5503.57108
  Ewald  -34804.29561-34804.29561-34804.29561    -0.00000    -0.00000    -0.00000
  Hartree 15844.03707 15844.03707 15844.03707    -0.00000    -0.00000    -0.00000
  E(xc)   -5429.97162 -5429.97162 -5429.97162    -0.00000    -0.00000     0.00000
  Local    2042.78535  2042.78535  2042.78535     0.00000     0.00000     0.00000
  n-local -3990.49269 -3986.72964 -3984.74528    -2.93335     0.04942     0.04967
  augment  6014.16369  6014.16369  6014.16368     0.00000    -0.00000     0.00000
  Kinetic 14769.96595 14809.46550 14846.27324     5.86413    -2.55124    -2.55126
  Fock        0.00000     0.00000     0.00000     0.00000     0.00000     0.00000
  Total      -8.46435    -8.46435    -8.46435    -0.00000     0.00000     0.00000
  in kB     -23.52136   -23.52136   -23.52136    -0.00000     0.00000     0.00000

 VOLUME and BASIS-vectors are now :
  energy-cutoff  :      600.00
  volume of cell :      576.56
      direct lattice vectors                 reciprocal lattice vectors
     8.323012000  0.000000000  0.000000000     0.120148812  0.000000000  0.000000000
     0.000000000  8.323012000  0.000000000     0.000000000  0.120148812  0.000000000
     0.000000000  0.000000000  8.323012000     0.000000000  0.000000000  0.120148812

  length of vectors
     8.323012000  8.323012000  8.323012000     0.120148812  0.120148812  0.120148812

 FORCES acting on ions
    electron-ion (+dipol)            ewald-force                    non-local-force                 convergence-correction
   0.645E-12 0.433E-12 0.100E-11   0.246E-12 -.126E-12 0.248E-14   0.695E-22 -.179E-21 -.596E-22   0.745E-12 0.109E-12 0.182E-11
   0.552E-12 0.489E-12 0.270E-12   0.260E-12 -.639E-13 0.628E-14   0.703E-22 0.960E-22 -.678E-22   0.866E-12 0.854E-13 -.617E-12
   0.582E-12 0.184E-12 0.925E-12   0.530E-12 0.178E-14 -.463E-14   -.261E-21 0.926E-22 0.629E-22   0.632E-12 0.221E-12 0.195E-11
   0.678E-12 0.105E-12 0.342E-12   0.516E-12 -.711E-14 -.826E-15   0.331E-22 -.108E-21 -.165E-22   0.531E-12 0.264E-12 -.587E-12
   0.174E-12 0.475E-12 -.595E-10   0.488E-12 -.711E-14 -.544E-13   -.422E-22 0.339E-22 0.529E-22   -.147E-11 0.264E-12 0.164E-11
   0.250E-12 0.428E-12 0.307E-10   0.544E-12 -.568E-13 0.628E-14   -.496E-23 -.165E-22 0.145E-21   -.159E-11 0.339E-12 -.615E-12
   0.222E-12 0.126E-10 -.523E-11   0.488E-12 0.711E-14 -.615E-13   0.213E-21 -.926E-22 -.798E-22   -.132E-11 0.157E-12 0.165E-11
   0.143E-12 0.114E-10 -.138E-10   0.544E-12 0.000E+00 -.826E-15   -.182E-21 -.265E-22 0.146E-21   -.126E-11 0.981E-13 -.639E-12
   0.646E-12 0.986E-12 0.100E-11   0.500E-12 0.108E-12 0.711E-14   0.156E-21 0.000E+00 0.179E-21   0.591E-12 0.962E-13 -.160E-11
   0.497E-12 0.104E-11 0.132E-11   0.508E-12 0.989E-13 0.639E-13   -.761E-22 0.184E-21 0.205E-21   0.602E-12 0.765E-13 0.614E-12
   0.565E-12 0.155E-11 0.892E-12   0.501E-12 0.974E-13 0.000E+00   -.728E-22 0.131E-21 -.463E-22   0.774E-12 0.207E-12 -.154E-11
   0.630E-12 0.147E-11 0.136E-11   0.395E-12 0.458E-13 0.568E-13   0.232E-22 -.141E-21 -.192E-21   0.772E-12 0.226E-12 0.547E-12
   0.240E-12 0.437E-10 0.196E-10   0.537E-12 -.574E-13 0.711E-14   -.199E-22 -.695E-22 0.185E-21   -.128E-11 -.126E-13 -.159E-11
   0.365E-12 0.149E-11 0.309E-11   0.509E-12 0.106E-12 0.711E-14   0.103E-21 0.298E-22 -.198E-21   -.129E-11 -.769E-13 0.429E-12
   0.307E-12 -.732E-11 0.121E-10   0.431E-12 0.103E-12 0.568E-13   0.147E-21 -.926E-22 0.977E-23   -.150E-11 0.319E-12 -.170E-11
   0.240E-12 0.176E-11 -.223E-10   0.402E-12 0.530E-13 0.568E-13   -.544E-22 0.154E-21 -.158E-21   -.144E-11 0.373E-12 0.431E-12
   0.108E-11 0.521E-12 0.161E-10   -.313E-12 -.128E-12 -.568E-13   -.397E-22 0.129E-21 0.960E-22   0.351E-13 0.644E-13 -.182E-11
   0.112E-11 0.424E-12 0.125E-11   -.284E-12 -.114E-12 0.639E-13   0.877E-22 -.827E-23 -.206E-21   0.920E-13 0.856E-13 0.258E-12
   0.120E-11 -.186E-12 0.184E-11   -.426E-12 -.171E-12 -.711E-14   0.893E-22 -.159E-21 0.201E-22   -.234E-13 0.247E-12 -.182E-11
   0.112E-11 -.888E-11 0.937E-11   -.369E-12 -.171E-12 0.000E+00   -.148E-21 0.331E-22 0.480E-22   0.427E-13 0.244E-12 0.386E-12
   0.169E-11 0.428E-12 -.432E-11   -.306E-12 -.128E-12 -.568E-13   -.149E-22 -.515E-22 0.122E-21   0.122E-11 0.169E-12 -.165E-11
   0.168E-11 0.540E-12 -.542E-10   -.320E-12 0.000E+00 0.711E-14   0.000E+00 -.471E-22 -.132E-21   0.115E-11 0.105E-12 0.641E-12
   0.163E-11 -.956E-11 -.839E-11   -.277E-12 -.426E-13 -.639E-13   -.844E-22 -.179E-21 0.200E-21   0.122E-11 -.122E-12 -.150E-11
   0.173E-11 0.126E-10 -.770E-11   -.263E-12 -.171E-12 0.000E+00   -.678E-22 0.130E-21 -.122E-21   0.118E-11 -.870E-13 0.498E-12
   0.124E-11 0.739E-11 -.208E-11   -.377E-12 0.113E-12 0.248E-14   -.132E-22 0.662E-23 0.122E-21   0.323E-13 0.165E-12 0.142E-11
   0.114E-11 -.629E-11 -.465E-11   -.405E-12 -.153E-13 0.631E-13   0.165E-23 0.480E-22 -.170E-21   0.108E-12 0.137E-12 -.886E-12
   0.114E-11 -.620E-11 -.280E-11   -.369E-12 0.453E-13 -.462E-14   -.910E-22 0.513E-22 0.000E+00   -.765E-13 0.388E-12 0.146E-11
   0.117E-11 0.785E-13 -.114E-10   -.398E-12 0.453E-13 0.560E-13   0.185E-21 -.129E-21 0.858E-22   -.693E-13 0.471E-12 -.878E-12
   0.159E-11 0.596E-11 0.167E-10   -.293E-12 0.113E-12 0.248E-14   -.106E-21 -.978E-22 0.144E-21   0.115E-11 0.105E-12 0.176E-11
   0.171E-11 0.986E-12 -.191E-10   -.284E-12 -.153E-13 0.629E-14   0.993E-22 0.877E-22 -.422E-22   0.108E-11 0.252E-12 -.677E-12
   0.168E-11 -.363E-10 0.137E-10   -.178E-12 0.453E-13 0.522E-13   -.827E-22 -.121E-21 0.132E-22   0.122E-11 0.307E-12 0.176E-11
   0.168E-11 0.261E-11 0.268E-11   -.171E-12 0.453E-13 0.560E-13   -.347E-22 -.119E-21 -.699E-22   0.122E-11 0.109E-12 -.458E-12
   0.118E-12 0.323E-12 -.212E-12   -.657E-13 -.799E-14 -.115E-13   0.171E-22 -.827E-24 0.993E-23   -.253E-12 -.442E-14 0.757E-12
   0.909E-13 0.353E-12 -.938E-11   -.568E-13 0.711E-14 -.315E-14   -.662E-23 0.308E-22 0.248E-23   -.190E-12 -.500E-13 -.278E-12
   0.123E-12 0.903E-12 -.104E-10   -.195E-13 0.888E-14 -.115E-13   -.290E-23 0.285E-22 0.265E-22   -.236E-12 0.150E-13 0.749E-12
   0.119E-12 0.974E-12 0.524E-12   0.000E+00 0.000E+00 -.315E-14   -.744E-23 0.269E-23 -.127E-22   -.263E-12 0.553E-13 -.205E-12
   0.397E-12 0.313E-12 0.214E-11   -.462E-13 -.133E-13 -.115E-13   0.279E-23 0.662E-23 0.182E-22   0.405E-12 0.609E-13 0.707E-12
   0.426E-12 0.291E-12 -.167E-11   0.142E-13 -.142E-13 -.103E-13   0.199E-22 0.827E-24 0.165E-23   0.338E-12 0.749E-13 -.207E-12
   0.376E-12 -.119E-11 0.130E-10   -.648E-13 0.000E+00 -.442E-14   0.157E-22 -.172E-22 -.414E-23   0.405E-12 -.203E-13 0.816E-12
   0.382E-12 0.509E-11 -.107E-11   -.782E-13 0.000E+00 -.315E-14   -.112E-22 0.248E-22 -.182E-22   0.435E-12 -.317E-13 -.327E-12
   0.113E-12 -.176E-11 0.102E-11   -.560E-13 -.596E-14 -.213E-13   -.256E-22 0.620E-23 -.339E-22   -.194E-12 -.135E-12 -.550E-12
   0.112E-12 0.398E-11 0.232E-11   -.560E-13 -.774E-14 -.213E-13   -.155E-22 -.248E-22 -.215E-22   -.194E-12 -.873E-13 0.452E-12
   0.139E-12 0.419E-11 0.257E-11   -.142E-13 -.216E-13 -.142E-13   0.327E-22 0.323E-22 -.579E-23   -.315E-12 0.613E-13 -.494E-12
   0.874E-13 -.850E-12 0.220E-11   -.284E-13 -.646E-14 -.142E-13   0.620E-23 0.196E-22 0.318E-22   -.223E-12 0.164E-13 0.437E-12
   0.402E-12 0.491E-11 -.133E-11   -.231E-13 -.148E-13 -.213E-13   0.317E-22 -.439E-23 0.194E-22   0.366E-12 0.288E-13 -.532E-12
   0.404E-12 0.161E-10 -.830E-11   -.888E-14 -.148E-13 -.213E-13   0.306E-22 0.703E-23 0.133E-22   0.368E-12 -.727E-13 0.442E-12
   0.359E-12 -.806E-11 0.117E-10   -.853E-13 -.269E-13 -.711E-14   -.910E-23 0.298E-22 -.168E-22   0.495E-12 -.742E-13 -.568E-12
   0.411E-12 0.164E-11 -.458E-11   -.156E-12 -.646E-14 -.142E-13   -.265E-22 -.910E-23 -.993E-23   0.396E-12 0.316E-13 0.440E-12
   0.172E-12 0.381E-12 0.165E-12   -.968E-13 0.231E-13 0.107E-13   0.124E-23 0.207E-23 -.145E-23   0.420E-12 -.554E-13 -.588E-12
   0.197E-12 0.362E-12 0.342E-12   -.102E-12 0.231E-13 0.107E-13   -.141E-22 0.662E-23 -.269E-22   0.357E-12 -.126E-13 0.497E-12
   0.251E-12 0.191E-12 0.122E-12   -.107E-12 0.373E-13 0.178E-13   0.128E-22 0.125E-22 0.703E-23   0.264E-12 0.379E-13 -.494E-12
   0.152E-12 -.501E-13 -.208E-12   -.130E-12 0.231E-13 0.178E-13   -.219E-22 0.285E-22 0.120E-22   0.352E-12 -.227E-14 0.398E-12
   0.834E-13 0.315E-12 0.189E-10   -.103E-12 0.000E+00 0.711E-14   0.332E-22 0.143E-22 0.128E-22   -.615E-12 0.801E-13 -.525E-12
   0.584E-13 0.342E-12 0.325E-11   -.104E-12 0.284E-13 0.142E-13   0.157E-22 -.168E-22 0.174E-22   -.556E-12 0.292E-13 0.419E-12
   -.497E-14 0.501E-11 0.831E-11   -.365E-13 0.426E-13 0.142E-13   0.151E-22 0.796E-23 0.300E-23   -.447E-12 -.917E-13 -.523E-12
   0.929E-13 0.578E-11 0.497E-11   -.258E-13 0.284E-13 0.213E-13   -.183E-22 -.579E-23 -.180E-22   -.543E-12 -.387E-13 0.437E-12
   0.191E-12 0.130E-12 0.456E-12   -.887E-13 0.179E-13 0.413E-14   0.109E-22 0.910E-23 -.132E-22   0.288E-12 -.139E-12 0.783E-12
   0.238E-12 0.976E-13 0.197E-12   -.745E-13 0.181E-13 0.256E-14   0.165E-23 -.190E-22 0.248E-23   0.269E-12 -.454E-13 -.266E-12
   0.203E-12 0.327E-12 0.434E-12   -.102E-12 0.710E-14 0.422E-14   -.290E-23 0.160E-22 0.300E-22   0.333E-12 0.701E-16 0.824E-12
   0.198E-12 -.209E-12 -.462E-13   -.173E-12 0.215E-13 0.977E-14   0.161E-22 0.281E-22 0.331E-23   0.368E-12 -.998E-13 -.295E-12
   0.664E-13 0.181E-10 -.119E-10   -.881E-13 0.266E-13 0.794E-14   0.827E-24 -.372E-23 -.285E-22   -.505E-12 -.979E-13 0.778E-12
   0.183E-13 0.749E-11 0.828E-11   -.738E-13 -.169E-14 0.637E-14   -.910E-23 0.729E-23 0.189E-23   -.484E-12 -.106E-12 -.271E-12
   0.663E-13 0.270E-11 -.119E-10   -.827E-13 0.158E-13 0.929E-15   0.141E-22 -.455E-23 -.279E-22   -.544E-12 0.279E-13 0.721E-12
   0.712E-13 0.554E-11 0.426E-11   -.111E-12 0.159E-13 0.136E-13   0.372E-23 -.248E-23 0.125E-22   -.583E-12 0.315E-13 -.219E-12
   0.354E-10 0.109E-09 -.572E-10   0.121E-12 -.431E-13 0.239E-12   -.661E-23 -.217E-21 0.265E-21   0.367E-11 0.477E-11 0.198E-11

 POSITION                                       TOTAL-FORCE (eV/Angst)
      0.00000      0.00000      0.00000         0.000000      0.000000      0.000000
      0.00000      0.00000      4.16151        -0.000000     -0.000000     -0.000000
      0.00000      4.16151      0.00000         0.000000     -0.000000     -0.000000
      0.00000      4.16151      4.16151        -0.000000      0.000000     -0.000000
      4.16151      0.00000      0.00000        -0.000000      0.000000      0.000000
      4.16151      0.00000      4.16151        -0.000000      0.000000      0.000000
      4.16151      4.16151      0.00000        -0.000000     -0.000000     -0.000000
      4.16151      4.16151      4.16151        -0.000000     -0.000000      0.000000
      0.00000      2.08075      2.08075         0.000000     -0.000000     -0.000000
      0.00000      2.08075      6.24226        -0.000000      0.000000      0.000000
      0.00000      6.24226      2.08075         0.000000     -0.000000      0.000000
      0.00000      6.24226      6.24226         0.000000     -0.000000      0.000000
      4.16151      2.08075      2.08075        -0.000000      0.000000     -0.000000
      4.16151      2.08075      6.24226        -0.000000      0.000000     -0.000000
      4.16151      6.24226      2.08075         0.000000      0.000000     -0.000000
      4.16151      6.24226      6.24226        -0.000000      0.000000     -0.000000
      2.08075      0.00000      2.08075         0.000000     -0.000000      0.000000
      2.08075      0.00000      6.24226         0.000000      0.000000     -0.000000
      2.08075      4.16151      2.08075         0.000000      0.000000     -0.000000
      2.08075      4.16151      6.24226        -0.000000     -0.000000      0.000000
      6.24226      0.00000      2.08075         0.000000      0.000000      0.000000
      6.24226      0.00000      6.24226        -0.000000      0.000000      0.000000
      6.24226      4.16151      2.08075        -0.000000      0.000000     -0.000000
      6.24226      4.16151      6.24226         0.000000     -0.000000      0.000000
      2.08075      2.08075      0.00000        -0.000000      0.000000      0.000000
      2.08075      2.08075      4.16151        -0.000000     -0.000000      0.000000
      2.08075      6.24226      0.00000         0.000000      0.000000     -0.000000
      2.08075      6.24226      4.16151        -0.000000      0.000000     -0.000000
      6.24226      2.08075      0.00000        -0.000000     -0.000000     -0.000000
      6.24226      2.08075      4.16151        -0.000000      0.000000     -0.000000
      6.24226      6.24226      0.00000         0.000000      0.000000      0.000000
      6.24226      6.24226      4.16151         0.000000     -0.000000      0.000000
      2.08075      0.00000      0.00000         0.000000     -0.000000      0.000000
      2.08075      0.00000      4.16151         0.000000      0.000000     -0.000000
      2.08075      4.16151      0.00000        -0.000000     -0.000000      0.000000
      2.08075      4.16151      4.16151        -0.000000     -0.000000      0.000000
      6.24226      0.00000      0.00000        -0.000000     -0.000000     -0.000000
      6.24226      0.00000      4.16151        -0.000000     -0.000000      0.000000
      6.24226      4.16151      0.00000         0.000000      0.000000     -0.000000
      6.24226      4.16151      4.16151         0.000000      0.000000      0.000000
      2.08075      2.08075      2.08075        -0.000000      0.000000      0.000000
      2.08075      2.08075      6.24226        -0.000000      0.000000     -0.000000
      2.08075      6.24226      2.08075         0.000000     -0.000000      0.000000
      2.08075      6.24226      6.24226         0.000000     -0.000000     -0.000000
      6.24226      2.08075      2.08075         0.000000     -0.000000      0.000000
      6.24226      2.08075      6.24226         0.000000     -0.000000     -0.000000
      6.24226      6.24226      2.08075        -0.000000     -0.000000      0.000000
      6.24226      6.24226      6.24226        -0.000000     -0.000000     -0.000000
      0.00000      0.00000      2.08075        -0.000000      0.000000      0.000000
      0.00000      0.00000      6.24226         0.000000      0.000000     -0.000000
      0.00000      4.16151      2.08075         0.000000     -0.000000      0.000000
      0.00000      4.16151      6.24226        -0.000000      0.000000     -0.000000
      4.16151      0.00000      2.08075        -0.000000     -0.000000      0.000000
      4.16151      0.00000      6.24226         0.000000     -0.000000     -0.000000
      4.16151      4.16151      2.08075        -0.000000      0.000000      0.000000
      4.16151      4.16151      6.24226        -0.000000      0.000000     -0.000000
      0.00000      2.08075      0.00000        -0.000000      0.000000      0.000000
      0.00000      2.08075      4.16151         0.000000     -0.000000      0.000000
      0.00000      6.24226      0.00000         0.000000     -0.000000      0.000000
      0.00000      6.24226      4.16151        -0.000000     -0.000000      0.000000
      4.16151      2.08075      0.00000        -0.000000      0.000000      0.000000
      4.16151      2.08075      4.16151         0.000000      0.000000     -0.000000
      4.16151      6.24226      0.00000        -0.000000     -0.000000     -0.000000
      4.16151      6.24226      4.16151        -0.000000     -0.000000      0.000000
    total drift:                                0.000000      0.000000     -0.000000

  FREE ENERGIE OF THE ION-ELECTRON SYSTEM (eV)
  free  energy   TOTEN  =      -391.96814688 eV

  energy  without entropy=     -391.96773535  energy(sigma->0) =     -391.96794111

 writing wavefunctions